(set-logic BV)

(synth-fun deobfucated ( (b (BitVec 64))  ) (BitVec 64)
	(
		(Start (BitVec 64)
			(
				(bvnot Start)
				(bvxor Start Start)
				(bvand Start Start)
				(bvor Start Start)
				(bvneg Start)
				(bvadd Start Start)
				(bvmul Start Start)
				(bvsub Start Start)
				b
			)
		)
	)
)

(constraint (= (deobfucated #x00000000350c0582) #xffffffffcaf3fa7e))
(constraint (= (deobfucated #x00000000222a9b1b) #xffffffffddd564e5))
(constraint (= (deobfucated #x0000000039467573) #xffffffffc6b98a8d))
(constraint (= (deobfucated #x00000000043e7c5c) #xfffffffffbc183a4))
(constraint (= (deobfucated #x000000000833415d) #xfffffffff7ccbea3))
(constraint (= (deobfucated #x000000002032d0a9) #xffffffffdfcd2f57))
(constraint (= (deobfucated #x000000002db1a9f7) #xffffffffd24e5609))
(constraint (= (deobfucated #x000000002da18220) #xffffffffd25e7de0))
(constraint (= (deobfucated #x000000001fdd3bee) #xffffffffe022c412))
(constraint (= (deobfucated #x00000000356d2295) #xffffffffca92dd6b))
(constraint (= (deobfucated #x000000003854e33b) #xffffffffc7ab1cc5))
(constraint (= (deobfucated #x00000000122dfdaf) #xffffffffedd20251))
(constraint (= (deobfucated #x000000001e10d49f) #xffffffffe1ef2b61))
(constraint (= (deobfucated #x0000000004dba731) #xfffffffffb2458cf))
(constraint (= (deobfucated #x000000001ef33914) #xffffffffe10cc6ec))
(constraint (= (deobfucated #x00000000211123e9) #xffffffffdeeedc17))
(constraint (= (deobfucated #x0000000034d02ddc) #xffffffffcb2fd224))
(constraint (= (deobfucated #x0000000013f68c33) #xffffffffec0973cd))
(constraint (= (deobfucated #x0000000025636716) #xffffffffda9c98ea))
(constraint (= (deobfucated #x000000000cc44e73) #xfffffffff33bb18d))
(check-synth)